96 100
94 61 1
54 96 2
91 61 1
98 28 1
42 39 1
67 63 1
95 95 1
65 51 1
50 78 1
92 93 2
59 90 1
97 88 1
22 86 1
78 85 1
91 47 1
89 85 1
53 92 1
76 88 1
83 16 1
43 96 1
48 17 1
86 52 1
74 96 2
8 75 1
53 52 1
57 79 1
86 87 1
85 97 1
22 50 1
41 77 1
59 91 1
73 91 1
50 59 1
85 66 1
95 56 1
92 80 1
91 78 1
92 83 1
86 63 1
45 75 1
59 51 1
50 80 1
60 92 1
58 57 1
39 36 1
70 71 1
97 33 1
84 63 1
80 83 1
51 84 1
93 85 1
72 81 1
83 91 1
95 57 1
51 99 1
71 60 1
98 60 2
50 43 1
22 25 1
32 2 1
74 92 1
66 89 1
53 62 1
54 54 1
12 90 1
95 98 1
89 68 1
61 90 1
85 67 1
53 71 1
85 95 1
73 56 1
87 100 1
70 94 1
95 33 1
46 35 1
66 44 1
100 28 1
61 82 1
80 74 1
75 99 1
90 73 1
27 83 1
62 65 1
92 81 1
85 65 1
85 89 1
11 96 1
55 100 1
39 50 1
5 75 1
70 84 1
81 80 1
86 100 1
95 36 1
78 23 1
100 100 
100 100 
100 100 
100 100 
100 100 
100 100 
100 100 
100 100 
100 100 
100 100 
100 100 
100 100 
100 100 
100 100 
100 100 
100 100 
100 100 
100 100 
100 100 
100 100 
100 100 
100 100 
100 100 
100 100 
100 100 
100 100 
100 100 
100 100 
100 100 
100 100 
100 100 
100 100 
100 100 
100 100 
100 100 
100 100 
100 100 
100 100 
100 100 
100 100 
100 100 
100 100 
100 100 
100 100 
100 100 
100 100 
100 100 
100 100 
100 100 
100 100 
100 100 
100 100 
100 100 
100 100 
100 100 
100 100 
100 100 
100 100 
100 100 
100 100 
100 100 
100 100 
100 100 
100 100 
100 100 
100 100 
100 100 
100 100 
100 100 
100 100 
100 100 
100 100 
100 100 
100 100 
100 100 
100 100 
100 100 
100 100 
100 100 
100 100 
100 100 
100 100 
100 100 
100 100 
100 100 
100 100 
100 100 
100 100 
100 100 
100 100 
100 100 
100 100 
100 100 
100 100 
100 100 
100 100 
100 100 
100 100 
100 100 
100 100 
